; benchmark generated from python API
(set-info :status unknown)
(declare-fun x_day () Int)
(declare-fun x_month () Int)
(declare-fun x_year () Int)
(declare-fun x_epoch () Int)
(declare-fun x_shift_period_913158_day () Int)
(declare-fun x_shift_period_913158_month () Int)
(declare-fun x_shift_period_913158_year () Int)
(declare-fun x_shift_period_913158_epoch () Int)
(declare-fun x_shift_period_915370_day () Int)
(declare-fun x_shift_period_915370_month () Int)
(declare-fun x_shift_period_915370_year () Int)
(declare-fun x_shift_period_915370_epoch () Int)
(assert
 (let (($x568 (> x_month 2)))
 (let (($x672 (= (mod x_year 4) 0)))
 (let (($x356 (= (mod x_year 100) 0)))
 (let (($x938 (= (mod x_year 400) 0)))
 (let (($x1010 (ite $x938 true (ite $x356 false $x672))))
 (let (($x652 (= x_month 9)))
 (let ((?x567 (ite $x652 243 (ite (= x_month 10) 273 (ite (= x_month 11) 304 334)))))
 (let (($x395 (= x_month 6)))
 (let ((?x112 (ite $x395 151 (ite (= x_month 7) 181 (ite (= x_month 8) 212 ?x567)))))
 (let (($x1615 (= x_month 5)))
 (let (($x788 (= x_month 4)))
 (let (($x231 (= x_month 3)))
 (let (($x620 (= x_month 2)))
 (let ((?x315 (ite $x620 31 (ite $x231 59 (ite $x788 90 (ite $x1615 120 ?x112))))))
 (let (($x503 (= x_month 1)))
 (let ((?x943 (ite $x503 0 ?x315)))
 (let ((?x1268 (- (+ (* 365 (- x_year 1)) (div (- x_year 1) 4)) (div (- x_year 1) 100))))
 (let ((?x328 (+ (+ ?x1268 (div (- x_year 1) 400)) (+ ?x943 (ite (and $x1010 $x568) 1 0)))))
 (let (($x182 (<= x_year 2400)))
 (let (($x1406 (>= x_year 1600)))
 (let ((?x564 (ite (or $x788 $x395 $x652 (= x_month 11)) 30 31)))
 (let ((?x889 (ite $x620 (ite $x1010 29 28) ?x564)))
 (let (($x1426 (>= x_day 1)))
 (let (($x150 (<= x_month 12)))
 (let (($x1627 (>= x_month 1)))
 (and $x1627 $x150 $x1426 (<= x_day ?x889) $x1406 $x182 (= x_epoch (+ ?x328 (- x_day 1))))))))))))))))))))))))))))))
(assert
 (let (($x1426 (>= x_day 1)))
 (let (($x503 (= x_month 1)))
 (let (($x2324 (= x_year 2023)))
 (let (($x1159 (and $x2324 $x503 $x1426)))
 (let (($x343 (and $x2324 (> x_month 1))))
 (let (($x3728 (> x_year 2023)))
 (or $x3728 $x343 $x1159))))))))
(assert
 (let (($x3779 (= (mod x_shift_period_913158_year 4) 0)))
 (let (($x4830 (= (mod x_shift_period_913158_year 100) 0)))
 (let (($x5103 (= (mod x_shift_period_913158_year 400) 0)))
 (let (($x4994 (ite $x5103 true (ite $x4830 false $x3779))))
 (let ((?x5048 (ite (= x_shift_period_913158_month 10) 273 (ite (= x_shift_period_913158_month 11) 304 334))))
 (let (($x2121 (= x_shift_period_913158_month 9)))
 (let ((?x452 (ite (= x_shift_period_913158_month 7) 181 (ite (= x_shift_period_913158_month 8) 212 (ite $x2121 243 ?x5048)))))
 (let (($x3032 (= x_shift_period_913158_month 6)))
 (let (($x1555 (= x_shift_period_913158_month 4)))
 (let ((?x2548 (ite $x1555 90 (ite (= x_shift_period_913158_month 5) 120 (ite $x3032 151 ?x452)))))
 (let (($x3138 (= x_shift_period_913158_month 2)))
 (let ((?x2225 (ite (= x_shift_period_913158_month 1) 0 (ite $x3138 31 (ite (= x_shift_period_913158_month 3) 59 ?x2548)))))
 (let ((?x5444 (+ ?x2225 (ite (and $x4994 (> x_shift_period_913158_month 2)) 1 0))))
 (let ((?x1283 (+ (* 365 (- x_shift_period_913158_year 1)) (div (- x_shift_period_913158_year 1) 4))))
 (let ((?x2347 (+ (- ?x1283 (div (- x_shift_period_913158_year 1) 100)) (div (- x_shift_period_913158_year 1) 400))))
 (let (($x1553 (= x_shift_period_913158_epoch (+ (+ ?x2347 ?x5444) (- x_shift_period_913158_day 1)))))
 (let (($x4263 (<= x_shift_period_913158_year 2400)))
 (let (($x2871 (>= x_shift_period_913158_year 1600)))
 (let ((?x2483 (ite (or $x1555 $x3032 $x2121 (= x_shift_period_913158_month 11)) 30 31)))
 (let (($x4199 (>= x_shift_period_913158_day 1)))
 (let (($x1649 (<= x_shift_period_913158_month 12)))
 (let (($x2690 (>= x_shift_period_913158_month 1)))
 (and $x2690 $x1649 $x4199 (<= x_shift_period_913158_day (ite $x3138 (ite $x4994 29 28) ?x2483)) $x2871 $x4263 $x1553))))))))))))))))))))))))
(assert
 (let ((?x1306 (* 12 x_year)))
 (let ((?x2663 (+ ?x1306 (- x_month 1))))
 (let ((?x582 (+ ?x2663 1)))
 (let ((?x387 (div ?x582 12)))
 (= x_shift_period_913158_year ?x387))))))
(assert
 (let ((?x3810 (+ (mod (+ (+ (* 12 x_year) (- x_month 1)) 1) 12) 1)))
 (= x_shift_period_913158_month ?x3810)))
(assert
 (let ((?x3810 (+ (mod (+ (+ (* 12 x_year) (- x_month 1)) 1) 12) 1)))
 (let ((?x4607 (ite (or (= ?x3810 4) (= ?x3810 6) (= ?x3810 9) (= ?x3810 11)) 30 31)))
 (let ((?x1306 (* 12 x_year)))
 (let ((?x2663 (+ ?x1306 (- x_month 1))))
 (let ((?x582 (+ ?x2663 1)))
 (let ((?x387 (div ?x582 12)))
 (let (($x2085 (ite (= (mod ?x387 400) 0) true (ite (= (mod ?x387 100) 0) false (= (mod ?x387 4) 0)))))
 (let ((?x2463 (ite (= ?x3810 2) (ite $x2085 29 28) ?x4607)))
 (let ((?x2739 (ite (<= x_day ?x2463) x_day ?x2463)))
 (let (($x737 (= x_month 11)))
 (let (($x652 (= x_month 9)))
 (let (($x395 (= x_month 6)))
 (let (($x788 (= x_month 4)))
 (let ((?x564 (ite (or $x788 $x395 $x652 $x737) 30 31)))
 (let (($x672 (= (mod x_year 4) 0)))
 (let (($x356 (= (mod x_year 100) 0)))
 (let (($x938 (= (mod x_year 400) 0)))
 (let (($x1010 (ite $x938 true (ite $x356 false $x672))))
 (let (($x620 (= x_month 2)))
 (let ((?x889 (ite $x620 (ite $x1010 29 28) ?x564)))
 (let (($x242 (= x_day ?x889)))
 (let ((?x2525 (ite false (ite $x242 ?x2463 ?x2739) ?x2739)))
 (= x_shift_period_913158_day ?x2525))))))))))))))))))))))))
(assert
 (let (($x4669 (= (mod x_shift_period_915370_year 4) 0)))
 (let (($x3159 (= (mod x_shift_period_915370_year 100) 0)))
 (let (($x528 (= (mod x_shift_period_915370_year 400) 0)))
 (let (($x2304 (ite $x528 true (ite $x3159 false $x4669))))
 (let ((?x4694 (ite (= x_shift_period_915370_month 10) 273 (ite (= x_shift_period_915370_month 11) 304 334))))
 (let (($x5515 (= x_shift_period_915370_month 9)))
 (let ((?x5297 (ite (= x_shift_period_915370_month 7) 181 (ite (= x_shift_period_915370_month 8) 212 (ite $x5515 243 ?x4694)))))
 (let (($x4212 (= x_shift_period_915370_month 6)))
 (let (($x1092 (= x_shift_period_915370_month 4)))
 (let ((?x4565 (ite $x1092 90 (ite (= x_shift_period_915370_month 5) 120 (ite $x4212 151 ?x5297)))))
 (let (($x430 (= x_shift_period_915370_month 2)))
 (let ((?x4760 (ite (= x_shift_period_915370_month 1) 0 (ite $x430 31 (ite (= x_shift_period_915370_month 3) 59 ?x4565)))))
 (let ((?x4784 (+ ?x4760 (ite (and $x2304 (> x_shift_period_915370_month 2)) 1 0))))
 (let ((?x1753 (+ (* 365 (- x_shift_period_915370_year 1)) (div (- x_shift_period_915370_year 1) 4))))
 (let ((?x4904 (+ (- ?x1753 (div (- x_shift_period_915370_year 1) 100)) (div (- x_shift_period_915370_year 1) 400))))
 (let (($x2038 (= x_shift_period_915370_epoch (+ (+ ?x4904 ?x4784) (- x_shift_period_915370_day 1)))))
 (let (($x2942 (<= x_shift_period_915370_year 2400)))
 (let (($x3193 (>= x_shift_period_915370_year 1600)))
 (let ((?x3893 (ite (or $x1092 $x4212 $x5515 (= x_shift_period_915370_month 11)) 30 31)))
 (let (($x3283 (>= x_shift_period_915370_day 1)))
 (let (($x4754 (<= x_shift_period_915370_month 12)))
 (let (($x3746 (>= x_shift_period_915370_month 1)))
 (and $x3746 $x4754 $x3283 (<= x_shift_period_915370_day (ite $x430 (ite $x2304 29 28) ?x3893)) $x3193 $x2942 $x2038))))))))))))))))))))))))
(assert
 (let ((?x1802 (+ (mod (+ (+ (* 12 x_year) (- x_month 1)) 0) 12) 1)))
 (let (($x5488 (= ?x1802 11)))
 (let (($x5461 (= ?x1802 9)))
 (let (($x3398 (= ?x1802 6)))
 (let (($x1967 (= ?x1802 4)))
 (let ((?x1306 (* 12 x_year)))
 (let ((?x2663 (+ ?x1306 (- x_month 1))))
 (let ((?x1951 (+ ?x2663 0)))
 (let ((?x2163 (div ?x1951 12)))
 (let (($x1121 (ite (= (mod ?x2163 400) 0) true (ite (= (mod ?x2163 100) 0) false (= (mod ?x2163 4) 0)))))
 (let (($x5303 (= ?x1802 2)))
 (let ((?x3325 (ite $x5303 (ite $x1121 29 28) (ite (or $x1967 $x3398 $x5461 $x5488) 30 31))))
 (let ((?x1281 (ite (<= x_day ?x3325) x_day ?x3325)))
 (let (($x737 (= x_month 11)))
 (let (($x652 (= x_month 9)))
 (let (($x395 (= x_month 6)))
 (let (($x788 (= x_month 4)))
 (let ((?x564 (ite (or $x788 $x395 $x652 $x737) 30 31)))
 (let (($x672 (= (mod x_year 4) 0)))
 (let (($x356 (= (mod x_year 100) 0)))
 (let (($x938 (= (mod x_year 400) 0)))
 (let (($x1010 (ite $x938 true (ite $x356 false $x672))))
 (let (($x620 (= x_month 2)))
 (let ((?x889 (ite $x620 (ite $x1010 29 28) ?x564)))
 (let (($x242 (= x_day ?x889)))
 (let ((?x2748 (ite (= ?x1802 8) 212 (ite $x5461 243 (ite (= ?x1802 10) 273 (ite $x5488 304 334))))))
 (let ((?x5467 (ite (= ?x1802 5) 120 (ite $x3398 151 (ite (= ?x1802 7) 181 ?x2748)))))
 (let ((?x5310 (ite (= ?x1802 1) 0 (ite $x5303 31 (ite (= ?x1802 3) 59 (ite $x1967 90 ?x5467))))))
 (let ((?x4447 (- (+ (* 365 (- ?x2163 1)) (div (- ?x2163 1) 4)) (div (- ?x2163 1) 100))))
 (let ((?x3070 (+ (+ ?x4447 (div (- ?x2163 1) 400)) (+ ?x5310 (ite (and $x1121 (> ?x1802 2)) 1 0)))))
 (= x_shift_period_915370_epoch (+ (+ ?x3070 (- (ite false (ite $x242 ?x3325 ?x1281) ?x1281) 1)) 31)))))))))))))))))))))))))))))))))
(assert
 (> x_shift_period_913158_epoch x_shift_period_915370_epoch))
(check-sat)
